32	0

0	2	2	3
6	2	4	5
6	2	4	5
6	1	6
5	1	6
6	1	7
5	1	8
10	2	9	10
8	1	11
3	1	11
4	1	12
2	1	13
5	1	14
6	1	15
7	1	16
9	2	17	18
9	1	19
3	1	19
4	1	20
4	2	21	22
8	1	23
6	1	23
3	1	24
9	1	25
2	1	26
8	2	27	28
5	1	29
2	1	29
10	1	30
3	1	31
7	1	32
0	0
